db/inputs/316702959116708313221667814922432228448.smt2
(set-logic QF_FP)
(declare-const x0 (_ FloatingPoint 11 53))
(declare-const x1 (_ FloatingPoint 11 53))
(declare-const x2 (_ FloatingPoint 11 53))
(declare-const x3 (_ FloatingPoint 11 53))
(declare-const x4 (_ FloatingPoint 11 53))
(declare-const x5 (_ FloatingPoint 11 53))
(declare-const x6 (_ FloatingPoint 11 53))
(declare-const x7 (_ FloatingPoint 11 53))
(declare-const x8 (_ FloatingPoint 11 53))
(declare-const x9 (_ FloatingPoint 11 53))
(declare-const x10 (_ FloatingPoint 11 53))
(declare-const x11 (_ FloatingPoint 11 53))
(declare-const x12 (_ FloatingPoint 11 53))
(declare-const x13 (_ FloatingPoint 11 53))
(declare-const x14 (_ FloatingPoint 11 53))
(declare-const x15 (_ FloatingPoint 11 53))
(assert (fp.leq (fp.add RNE (fp.neg x4) (fp.neg x9)) (fp.div RNE (fp.div RNE x2 x7) (fp.sub RNE x5 x10))))
(assert (fp.eq (fp.sub RNE (fp.sub RNE x0 x6) (fp.neg x12)) (fp.div RNE (fp.neg x1) (fp.sub RNE x11 x6))))
(assert (fp.eq (fp.sub RNE (fp.mul RNE x6 x14) (fp.div RNE x14 x1)) (fp.neg (fp.add RNE x9 x14))))
(check-sat)
