db/data/316702959116708313221667814922432228448.z3.out
-------------------
2500.096367202
